/*********************************************
 * OPL 12.8.0.0 Data
 * Author: HP
 * Creation Date: Jul 2, 2022 at 5:07:10 PM
 *********************************************/
t=3;
i=2;
r=1;
D=[[10,15],[10,15],[10,15]];
E=[[8,18],[18,8],[8,18]];
//C=[[5,5],[5,5],[5,5]];